NAME : tsp50_3.202.tour
COMMENT : Length = 202
COMMENT : Found by LKH [Keld Helsgaun]
TYPE : TOUR
DIMENSION : 50
TOUR_SECTION
1
33
25
18
13
24
35
3
23
46
31
29
14
28
42
37
8
50
16
11
39
10
48
27
43
19
6
49
20
21
38
36
5
15
45
9
22
12
34
30
47
4
32
26
7
17
44
40
2
41
-1
EOF
